50
120
99
98
98
97
96
90
88
86
82
82
80
79
76
76
76
74
69
67
66
64
62
59
55
52
51
51
50
49
44
43
41
41
41
41
41
37
35
33
32
32
31
31
31
30
29
23
23
22
20
20
